
Log started (V12.10.0.0) Fri Apr  9 00:31:54 2021


Problem 'asset.lp' read.
Read time = 0.00 sec. (0.14 ticks)
New value for default parallel thread count: 1
New value for time limit in seconds: 200
Version identifier: 12.10.0.0 | 2019-11-26 | 843d4de
CPXPARAM_Threads                                 1
CPXPARAM_TimeLimit                               200
Found incumbent of value -0.887266 after 0.00 sec. (0.07 ticks)
Tried aggregator 3 times.
MIP Presolve eliminated 442 rows and 230 columns.
MIP Presolve modified 1138 coefficients.
Aggregator did 428 substitutions.
Reduced MIP has 505 rows, 578 columns, and 2455 nonzeros.
Reduced MIP has 521 binaries, 29 generals, 0 SOSs, and 0 indicators.
Presolve time = 0.01 sec. (5.89 ticks)
Probing fixed 83 vars, tightened 1 bounds.
Probing time = 0.00 sec. (1.65 ticks)
Cover probing fixed 0 vars, tightened 53 bounds.
Tried aggregator 1 time.
MIP Presolve eliminated 91 rows and 91 columns.
MIP Presolve modified 142 coefficients.
Reduced MIP has 414 rows, 487 columns, and 1852 nonzeros.
Reduced MIP has 431 binaries, 28 generals, 0 SOSs, and 0 indicators.
Presolve time = 0.00 sec. (1.78 ticks)
Probing time = 0.00 sec. (1.12 ticks)
Tried aggregator 1 time.
Detecting symmetries...
MIP Presolve modified 54 coefficients.
Reduced MIP has 414 rows, 487 columns, and 1852 nonzeros.
Reduced MIP has 431 binaries, 28 generals, 0 SOSs, and 0 indicators.
Presolve time = 0.00 sec. (1.30 ticks)
Probing time = 0.00 sec. (1.13 ticks)
Clique table members: 1259.
MIP emphasis: balance optimality and feasibility.
MIP search method: dynamic search.
Parallel mode: none, using 1 thread.
Root relaxation solution time = 0.01 sec. (5.38 ticks)

        Nodes                                         Cuts/
   Node  Left     Objective  IInf  Best Integer    Best Bound    ItCnt     Gap

*     0+    0                           -0.8873      364.1225              --- 
      0     0      289.9416   114       -0.8873      289.9416      391     --- 
      0     0      255.0411   114       -0.8873     Cuts: 203      704     --- 
      0     0      250.9403   114       -0.8873     Cuts: 167      866     --- 
*     0+    0                          189.3835      250.9403            32.50%
      0     0      248.9533   114      189.3835     Cuts: 124      938   31.45%
      0     0      247.6769   114      189.3835      Cuts: 97     1032   30.78%
      0     0      246.5784   114      189.3835      Cuts: 95     1131   30.20%
Detecting symmetries...
      0     0      246.1429   114      189.3835      Cuts: 62     1277   29.97%
      0     0      245.5865   114      189.3835      Cuts: 72     1350   29.68%
      0     0      245.4414   114      189.3835      Cuts: 39     1388   29.60%
      0     0      244.8996   114      189.3835      Cuts: 64     1449   29.31%
      0     0      244.6073   114      189.3835      Cuts: 85     1531   29.16%
      0     0      244.5545   114      189.3835      Cuts: 45     1572   29.13%
      0     0      244.5070   114      189.3835      Cuts: 39     1625   29.11%
      0     0      244.3859   114      189.3835      Cuts: 25     1686   29.04%
      0     0      244.2905   114      189.3835      Cuts: 68     1744   28.99%
      0     0      244.1482   114      189.3835      Cuts: 62     1782   28.92%
      0     0      244.0965   114      189.3835      Cuts: 63     1821   28.89%
      0     0      244.0227   114      189.3835      Cuts: 44     1898   28.85%
      0     0      243.8697   114      189.3835      Cuts: 66     1967   28.77%
      0     0      243.7443   114      189.3835      Cuts: 70     2029   28.70%
      0     0      243.6910   114      189.3835      Cuts: 44     2092   28.68%
      0     0      243.4987   114      189.3835      Cuts: 59     2206   28.57%
      0     0      243.4657   114      189.3835      Cuts: 73     2270   28.56%
      0     0      243.3034   114      189.3835      Cuts: 49     2373   28.47%
      0     0      243.2720   114      189.3835      Cuts: 80     2439   28.45%
*     0+    0                          189.3851      243.2720            28.45%
Detecting symmetries...
      0     2      243.2720   149      189.3851      243.2687     2439   28.45%
Elapsed time = 0.29 sec. (254.00 ticks, tree = 0.01 MB, solutions = 2)
*    40+   40                          208.9730      243.2499            16.40%
*    46    41      integral     0      220.8831      243.2499     3437   10.13%
*   120+   88                          227.8050      242.9702             6.66%
    217   154      242.1464    76      227.8050      242.1597     9210    6.30%
    420   277      235.5371    89      227.8050      239.1372    16305    4.97%
    617   408      238.4585    95      227.8050      238.9483    22910    4.89%
    821   555        cutoff            227.8050      238.7629    29839    4.81%
   1013   685      235.3546    34      227.8050      238.5109    36364    4.70%

Performing restart 1

Repeating presolve.
Tried aggregator 1 time.
MIP Presolve eliminated 3 rows and 3 columns.
MIP Presolve modified 277 coefficients.
Reduced MIP has 411 rows, 484 columns, and 1643 nonzeros.
Reduced MIP has 429 binaries, 27 generals, 0 SOSs, and 0 indicators.
Presolve time = 0.00 sec. (1.55 ticks)
Tried aggregator 1 time.
Reduced MIP has 411 rows, 484 columns, and 1643 nonzeros.
Reduced MIP has 429 binaries, 27 generals, 0 SOSs, and 0 indicators.
Presolve time = 0.00 sec. (1.25 ticks)
Represolve time = 0.01 sec. (9.73 ticks)
   1020     0      241.3842   148      227.8050      Cuts: 82    37416    4.70%
   1020     0      241.0734   148      227.8050      Cuts: 78    37558    4.70%
   1020     0      240.6271   148      227.8050      Cuts: 98    37647    4.70%
   1020     0      239.1389   148      227.8050      Cuts: 79    37820    4.70%
   1020     0      238.9477   148      227.8050      Cuts: 55    37972    4.70%
   1020     0      238.7576   148      227.8050      Cuts: 94    38105    4.70%
   1020     0      238.5765   148      227.8050      Cuts: 62    38196    4.70%
   1020     0      238.1661   148      227.8050      Cuts: 57    38273    4.55%
   1020     0      238.0050   148      227.8050      Cuts: 74    38335    4.48%
   1020     0      237.8455   148      227.8050      Cuts: 55    38392    4.41%
   1020     0      237.3852   148      227.8050      Cuts: 36    38493    4.21%
   1020     0      237.0327   148      227.8050      Cuts: 50    38567    4.05%
   1020     0      236.7506   148      227.8050      Cuts: 39    38628    3.93%
   1020     0      236.4528   148      227.8050      Cuts: 50    38707    3.80%
   1020     0      236.1550   148      227.8050      Cuts: 60    38802    3.67%
   1020     0      236.0980   148      227.8050      Cuts: 32    38888    3.64%
   1020     0      235.8771   148      227.8050      Cuts: 39    39004    3.54%
   1020     0      235.8685   148      227.8050      Cuts: 40    39044    3.54%
   1020     0      235.8336   148      227.8050      Cuts: 23    39078    3.52%
   1020     0      235.7717   148      227.8050      Cuts: 30    39129    3.50%
   1020     0      235.7490   148      227.8050      Cuts: 28    39190    3.49%
   1020     0      235.7131   148      227.8050      Cuts: 17    39223    3.47%
   1020     0      235.6663   148      227.8050      Cuts: 28    39254    3.45%
   1020     0      235.6508   148      227.8050      Cuts: 15    39285    3.44%
   1020     0      235.6232   148      227.8050      Cuts: 10    39317    3.43%
*  1020+    0                          227.8053      235.6232             3.43%
   1020     0        cutoff            227.8053      235.6232    39317    3.43%
   1020     2      235.6232   142      227.8053      235.6181    39317    3.43%
   1026     8      231.4951    83      227.8053      235.0495    40093    3.18%
   1038     7      230.5958   105      227.8053      232.4526    41537    2.04%
*  1070+   16                          227.8552      232.3159             1.96%
*  1070+   16                          227.8554      232.3159             1.96%
*  1088    22      integral     0      228.4249      231.3086    43515    1.26%

GUB cover cuts applied:  4
Clique cuts applied:  70
Cover cuts applied:  1
Implied bound cuts applied:  10
Flow cuts applied:  7
Mixed integer rounding cuts applied:  30
Zero-half cuts applied:  45
Lift and project cuts applied:  13
Gomory fractional cuts applied:  1

Root node processing (before b&c):
  Real time             =    0.29 sec. (254.09 ticks)
Sequential b&c:
  Real time             =    2.96 sec. (3247.64 ticks)
                          ------------
Total (root+branch&cut) =    3.25 sec. (3501.73 ticks)

Solution pool: 10 solutions saved.

MIP - Integer optimal, tolerance (0.0001/1e-06):  Objective =  2.2842489302e+02
Current MIP best bound =  2.2842907219e+02 (gap = 0.00417917, 0.00%)
Solution time =    3.25 sec.  Iterations = 44133  Nodes = 1103 (12)
Deterministic time = 3501.73 ticks  (1078.52 ticks/sec)


Incumbent solution
Variable Name           Solution Value
F                           255.000000
f1                            0.925107
f2                           25.650000
y69                           1.000000
y159                          1.000000
y167                          1.000000
y80                           1.000000
y5                            1.000000
y181                          1.000000
y144                          1.000000
y35                           1.000000
y77                           1.000000
y133                          1.000000
y11                           1.000000
y107                          1.000000
y171                          1.000000
y117                          1.000000
y60                           1.000000
s25                           6.000000
s46                           6.000000
s69                           6.121832
s84                           6.000000
s104                          6.000000
s108                          6.000000
s109                          6.000000
s119                          6.000000
s159                          6.269038
s167                          6.380135
s134                          6.010000
s115                          6.020000
s2                            6.030000
s80                           6.580390
s92                           6.270000
s5                            6.607750
s181                          7.336238
s67                           6.480000
s122                          6.570000
s126                          6.580000
s144                          7.486798
s35                           6.826026
s77                           7.578292
s133                          7.590954
s11                           7.321204
s107                          7.732706
s121                          6.810000
s171                          7.734751
s55                           6.850000
s93                           6.940000
s15                           6.980000
s117                          7.814846
s59                           7.040000
s60                           8.066396
x33x181x1                     1.000000
x160x5x1                      1.000000
x177x35x1                     1.000000
x14x144x1                     1.000000
x14x77x1                      1.000000
x177x80x2                     1.000000
x111x11x2                     2.000000
x173x159x2                    1.000000
x163x80x2                     1.000000
x140x69x2                     2.000000
x98x35x2                      1.000000
x33x181x3                     1.000000
x160x167x3                    1.000000
x173x159x3                    1.000000
x163x167x3                    1.000000
x98x5x3                       1.000000
x69x144x2                     1.000000
x69x77x2                      1.000000
x159x171x2                    1.000000
x159x171x3                    1.000000
x167x133x3                    2.000000
x80x107x2                     1.000000
x80x117x2                     1.000000
x5x107x1                      1.000000
x5x117x3                      1.000000
x181x0x1                      1.000000
x181x0x3                      1.000000
x144x0x1                      1.000000
x144x0x2                      1.000000
x35x60x1                      1.000000
x35x60x2                      1.000000
x77x0x1                       1.000000
x77x0x2                       1.000000
x133x0x3                      2.000000
x11x0x2                       2.000000
x107x0x1                      1.000000
x107x0x2                      1.000000
x171x0x2                      1.000000
x171x0x3                      1.000000
x117x0x2                      1.000000
x117x0x3                      1.000000
x60x0x1                       1.000000
x60x0x2                       1.000000
s33                           5.217871
z33z181z1                     1.000000
z33z181z3                     1.000000
s160                          4.962971
z160z167z3                    1.000000
z160z5z1                      1.000000
z160z133z3                    1.000000
z160z59z1                     1.000000
s177                          5.122355
z177z80z2                     1.000000
z177z122z2                    1.000000
z177z35z1                     1.000000
z177z11z2                     1.000000
z177z59z1                     1.000000
s111                          5.997814
z111z11z2                     1.000000
s14                           5.691094
z14z144z1                     1.000000
z14z77z1                      1.000000
s173                          4.759350
z173z159z2                    1.000000
z173z159z3                    1.000000
z173z122z2                    1.000000
z173z133z3                    1.000000
z173z11z2                     1.000000
s163                          4.760150
z163z167z3                    1.000000
z163z80z2                     1.000000
z163z122z2                    1.000000
z163z133z3                    1.000000
z163z11z2                     1.000000
s140                          4.795420
z140z69z2                     1.000000
z140z80z2                     1.000000
z140z122z2                    1.000000
z140z126z2                    1.000000
z140z11z2                     1.000000
s98                           4.863140
z98z5z3                       1.000000
z98z35z2                      1.000000
z98z133z3                     1.000000
z98z11z2                      1.000000
z69z144z2                     1.000000
z69z77z2                      1.000000
z159z171z2                    1.000000
z159z171z3                    1.000000
z167z133z3                    1.000000
z80z107z2                     1.000000
z80z117z2                     1.000000
z5z107z1                      1.000000
z5z117z3                      1.000000
z35z60z1                      1.000000
z35z60z2                      1.000000
All other variables in the range 1-1239 are 0.
